[2026-03-24T15:25:58.281Z] Pipeline "set_vm-3-t1_vm-3-t1_s024_g003" → 2026_03_24_15_25_58_set_vm-3-t1_vm-3-t1_s024_g003_max.sol
Set parameter Username
Set parameter LicenseID to value 2796068
Set parameter LogFile to value "gurobi.log"
Using license file /opt/gurobi/gurobi.lic
Academic license - for non-commercial use only - expires 2027-03-23

Gurobi Optimizer version 13.0.1 build v13.0.1rc0 (linux64 - "Ubuntu 24.04.4 LTS")
Copyright (c) 2026, Gurobi Optimization, LLC

Warning: Duplicate section found (read 'binary') - Is a variable name equal to an LP file format keyword?
Warning: Duplicate section found (read 'binary') - Is a variable name equal to an LP file format keyword?
Warning: Duplicate section found (read 'binary') - Is a variable name equal to an LP file format keyword?
Warning: Duplicate section found (read 'binary') - Is a variable name equal to an LP file format keyword?
Warning: Duplicate section found (read 'binary') - Is a variable name equal to an LP file format keyword?
Warning: Duplicate section found (read 'binary') - Is a variable name equal to an LP file format keyword?
Warning: Duplicate section found (read 'binary') - Is a variable name equal to an LP file format keyword?
Warning: Duplicate section found (read 'binary') - Is a variable name equal to an LP file format keyword?
Warning: Duplicate section found (read 'binary') - Is a variable name equal to an LP file format keyword?
Warning: Duplicate section found (read 'binary') - Is a variable name equal to an LP file format keyword?
Warning: Further warnings of this type will be omitted.
Read LP format model from file /root/bgw/data/uploads/2026_03_24_15_25_58_set_vm-3-t1_vm-3-t1_s024_g003_max.lp
Reading time = 0.01 seconds
: 12308 rows, 667 columns, 37698 nonzeros

Using Gurobi shared library /opt/gurobi1301/linux64/lib/libgurobi.so.13.0.1

CPU model: AMD EPYC-Genoa Processor, instruction set [SSE2|AVX|AVX2|AVX512]
Thread count: 16 physical cores, 16 logical processors, using up to 16 threads

Optimize a model with 12308 rows, 667 columns and 37698 nonzeros (Max)
Model fingerprint: 0xac8e2846
Model has 10 linear objective coefficients
Variable types: 44 continuous, 623 integer (623 binary)
Coefficient statistics:
  Matrix range     [1e+00, 4e+01]
  Objective range  [1e+00, 1e+00]
  Bounds range     [1e+00, 1e+00]
  RHS range        [1e+00, 4e+01]

Found heuristic solution: objective 10.0000000
Presolve removed 309 rows and 87 columns
Presolve time: 0.04s
Presolved: 11999 rows, 580 columns, 36214 nonzeros
Variable types: 0 continuous, 580 integer (573 binary)

Root relaxation: objective 4.600000e+01, 342 iterations, 0.02 seconds (0.03 work units)

    Nodes    |    Current Node    |     Objective Bounds      |     Work
 Expl Unexpl |  Obj  Depth IntInf | Incumbent    BestBd   Gap | It/Node Time

     0     0   46.00000    0   32   10.00000   46.00000   360%     -    0s
H    0     0                      25.0000000   46.00000  84.0%     -    0s
H    0     0                      28.0000000   46.00000  64.3%     -    0s
     0     0   46.00000    0   31   28.00000   46.00000  64.3%     -    0s
     0     0   46.00000    0   26   28.00000   46.00000  64.3%     -    0s
     0     0   46.00000    0   24   28.00000   46.00000  64.3%     -    0s
     0     0   46.00000    0   18   28.00000   46.00000  64.3%     -    0s
     0     0   43.00000    0   26   28.00000   43.00000  53.6%     -    0s
     0     0   43.00000    0   24   28.00000   43.00000  53.6%     -    0s
     0     0   43.00000    0   24   28.00000   43.00000  53.6%     -    0s
     0     0   43.00000    0   24   28.00000   43.00000  53.6%     -    0s
     0     0   43.00000    0   17   28.00000   43.00000  53.6%     -    0s
     0     0   43.00000    0   24   28.00000   43.00000  53.6%     -    0s
     0     0   43.00000    0   24   28.00000   43.00000  53.6%     -    0s
     0     0   43.00000    0   24   28.00000   43.00000  53.6%     -    0s
     0     0   43.00000    0   24   28.00000   43.00000  53.6%     -    0s
     0     0   43.00000    0   17   28.00000   43.00000  53.6%     -    0s
     0     0   43.00000    0   24   28.00000   43.00000  53.6%     -    0s
     0     0   43.00000    0   40   28.00000   43.00000  53.6%     -    0s
     0     0   43.00000    0   18   28.00000   43.00000  53.6%     -    0s
     0     0   43.00000    0   18   28.00000   43.00000  53.6%     -    0s
     0     0   43.00000    0   18   28.00000   43.00000  53.6%     -    0s
     0     2   43.00000    0   18   28.00000   43.00000  53.6%     -    0s
  1902   226   36.06250   11   19   28.00000   39.55000  41.2%   173    5s

Cutting planes:
  Gomory: 3
  Cover: 20
  MIR: 9
  StrongCG: 1
  Inf proof: 38
  Zero half: 3

Explored 2936 nodes (629143 simplex iterations) in 7.41 seconds (15.69 work units)
Thread count was 16 (of 16 available processors)

Solution count 3: 28 25 10 

Optimal solution found (tolerance 1.00e-04)
Best objective 2.800000000000e+01, best bound 2.800000000000e+01, gap 0.0000%

Wrote result file '/root/bgw/data/results/2026_03_24_15_25_58_set_vm-3-t1_vm-3-t1_s024_g003_max.sol'

